750
750
600
600
600
599
599
598
597
596
595
595
595
594
594
593
593
593
592
592
592
592
592
591
590
588
588
588
585
584
584
583
583
583
583
580
580
579
579
579
579
578
577
576
575
575
575
575
574
574
573
573
572
572
568
568
567
567
567
567
567
566
566
566
565
565
563
563
563
561
561
561
560
559
558
556
555
555
555
555
553
552
552
551
550
550
546
545
542
541
541
541
539
538
538
537
535
533
532
531
530
529
527
526
524
524
524
521
520
519
519
517
514
514
514
513
513
513
512
511
508
508
507
506
504
503
502
501
501
501
501
500
498
498
498
496
496
495
495
495
494
494
494
493
492
492
491
491
488
488
488
488
487
487
487
486
485
484
484
484
483
483
482
481
480
480
479
478
477
477
477
477
476
476
475
474
474
474
474
473
473
472
472
472
471
470
470
470
469
468
468
468
467
466
464
464
462
461
460
459
459
458
458
457
457
456
456
454
453
452
451
451
451
450
450
449
448
448
447
447
446
446
446
445
445
444
443
443
442
441
441
441
440
440
440
440
438
437
436
434
434
433
433
431
431
430
430
428
428
427
427
427
426
426
424
423
423
423
423
422
421
421
419
418
418
416
416
416
415
414
414
413
413
412
411
411
410
410
409
408
407
406
406
405
405
405
404
403
398
398
398
397
397
397
394
394
394
393
391
390
390
390
390
385
384
383
383
383
383
382
381
381
378
377
377
377
376
375
372
372
372
370
369
369
369
369
368
368
367
367
367
366
365
364
364
364
364
363
362
361
361
361
360
360
359
359
358
357
357
356
355
355
355
355
355
355
353
352
352
350
349
349
348
348
346
346
346
345
345
344
344
341
341
340
340
337
337
337
336
336
336
334
334
334
333
333
333
332
332
329
329
328
328
328
328
328
327
327
327
326
326
324
324
322
319
316
315
314
314
313
312
312
312
310
309
307
305
305
303
303
302
302
301
301
299
295
294
294
293
292
292
292
291
291
290
290
290
288
287
287
285
284
284
283
283
282
282
281
280
280
280
279
279
278
277
276
276
275
275
275
275
273
273
273
273
273
273
272
272
271
270
269
268
268
267
266
266
265
264
264
263
263
263
263
262
260
260
260
259
259
259
258
258
257
257
256
253
253
253
253
253
251
246
246
246
245
245
244
244
242
241
241
240
239
239
238
236
236
236
236
236
235
235
234
233
232
231
231
229
229
229
228
228
228
227
227
226
225
223
222
222
222
221
220
220
220
219
219
219
215
214
214
212
212
211
209
209
209
207
205
204
203
203
202
202
201
201
200
200
199
199
199
198
198
198
198
197
196
196
195
195
193
192
190
189
188
188
187
185
185
184
184
183
183
182
182
181
181
180
179
179
179
175
175
174
173
173
173
173
171
170
170
170
170
170
170
168
167
167
167
167
164
162
162
161
161
161
161
159
158
157
157
156
156
155
154
153
152
152
150
150
149
149
148
148
147
147
147
145
145
143
143
142
141
140
140
139
139
139
138
136
136
136
135
134
132
132
132
131
129
129
129
129
128
125
125
125
123
123
123
122
122
119
118
118
118
118
117
117
116
115
114
112
112
110
109
109
108
107
107
107
106
106
106
106
106
106
105
104
102
101
101
100
100
100
99
98
97
97
96
96
95
95
95
93
92
90
89
89
88
88
87
87
87
86
85
84
84
83
83
82
82
82
80
79
78
78
78
78
77
75
75
